nNurses = 131;
nHours = 32;
minHours = 8;
maxHours = 17;
maxConsec = 7;
maxPresence = 24;
demand = [28, 31, 30, 31, 31, 30, 29, 33, 30, 31, 35, 32, 36, 37, 39, 37, 36, 32, 28, 31, 33, 36, 35, 34, 32, 30, 27, 22, 21, 25, 29, 28];
